
Value of objective function: 135.00000000

Actual values of the variables:
t1                              1
t2                              0
t3                              0
t4                              0
t5                              1
t6                              0
t7                              1
t8                              0
t9                              0
t10                             0
t11                             1
t12                             1
t13                             1
t14                             1
t15                             1
t16                             1
t17                             1
t18                             1
t19                             0
t20                             1
t21                             1
t22                             0
t23                             1
t24                             1
t25                             1
t26                             1
t27                             1
t28                             0
t29                             1
t30                             1
t31                             0
t32                             1
t33                             1
t34                             1
t35                             1
t36                             1
t37                             1
t38                             1
t39                             1
t40                             1
t41                             1
t42                             1
t43                             1
t44                             1
t45                             1
t46                             1
t47                             1
t48                             1
t49                             1
t50                             1
t51                             0
t52                             1
t53                             1
t54                             0
t55                             1
t56                             1
t57                             1
t58                             1
t59                             1
t60                             0
t61                             0
t62                             1
t63                             1
t64                             1
t65                             1
t66                             0
t67                             1
t68                             1
t69                             1
t70                             1
t71                             1
t72                             1
t73                             1
t74                             1
t75                             1
t76                             0
t77                             1
t78                             1
t79                             1
t80                             1
t81                             0
t82                             1
t83                             1
t84                             1
t85                             1
t86                             1
t87                             1
t88                             1
t89                             1
t90                             1
t91                             1
t92                             1
t93                             1
t94                             1
t95                             1
t96                             0
t97                             1
t98                             0
t99                             1
t100                            1
t101                            1
t102                            0
t103                            1
t104                            1
t105                            0
t106                            1
t107                            0
t108                            1
t109                            1
t110                            1
t111                            0
t112                            1
t113                            1
t114                            0
t115                            1
t116                            0
t117                            0
t118                            1
t119                            0
t120                            0
t121                            0
t122                            1
t123                            0
t124                            0
t125                            1
t126                            1
t127                            0
t128                            1
t129                            1
t130                            0
t131                            0
t132                            0
t133                            1
t134                            0
t135                            0
t136                            1
t137                            1
t138                            1
t139                            1
t140                            1
t141                            1
t142                            0
t143                            1
t144                            1
t145                            1
t146                            1
t147                            1
t148                            1
t149                            1
t150                            1
t151                            1
t152                            1
t153                            1
t154                            1
t155                            1
t156                            0
t157                            1
t158                            0
t159                            1
t160                            0
t161                            0
t162                            0
t163                            0
t164                            0
t165                            0
t166                            0
t167                            0
t168                            0
t169                            0
t170                            0
t171                            1
t172                            0
t173                            0
t174                            0
t175                            1
t176                            1
t177                            0
t178                            0
t179                            0
t180                            0
t181                            0
t182                            0
t183                            0
t184                            0
t185                            0
t186                            1
t187                            0
t188                            0
t189                            0
t190                            0
t191                            0
t192                            1
t193                            1
t194                            1
t195                            0
t196                            0
t197                            1
t198                            1
t199                            1
t200                            0
t201                            0
t202                            0
t203                            1
t204                            0
t205                            1
t206                            1
t207                            0
t208                            0
t209                            1
t210                            0
t211                            0
t212                            0
t213                            0
t214                            0
t215                            0
t216                            0
t217                            0
t218                            0
t219                            0
t220                            1
t221                            1
t222                            1
t223                            0
